50
1 0 45
2 0 57
2 1 25
3 0 68
3 1 86
3 2 7
4 0 13
4 1 21
4 2 77
4 3 27
5 0 5
5 1 57
5 2 91
5 3 58
5 4 82
6 0 75
6 1 4
6 2 3
6 3 82
6 4 75
6 5 26
7 0 91
7 1 35
7 2 62
7 3 36
7 4 40
7 5 66
7 6 94
8 0 62
8 1 26
8 2 39
8 3 30
8 4 51
8 5 82
8 6 67
8 7 68
9 0 5
9 1 87
9 2 18
9 3 5
9 4 67
9 5 24
9 6 78
9 7 46
9 8 7
10 0 11
10 1 60
10 2 38
10 3 36
10 4 36
10 5 66
10 6 21
10 7 23
10 8 50
10 9 46
11 0 6
11 1 33
11 2 3
11 3 2
11 4 42
11 5 79
11 6 15
11 7 43
11 8 11
11 9 71
11 10 32
12 0 84
12 1 69
12 2 3
12 3 3
12 4 30
12 5 38
12 6 2
12 7 69
12 8 16
12 9 93
12 10 55
12 11 68
13 0 79
13 1 11
13 2 50
13 3 82
13 4 72
13 5 86
13 6 27
13 7 81
13 8 70
13 9 100
13 10 26
13 11 57
13 12 11
14 0 32
14 1 43
14 2 28
14 3 72
14 4 31
14 5 80
14 6 67
14 7 86
14 8 80
14 9 17
14 10 97
14 11 39
14 12 47
14 13 37
15 0 39
15 1 1
15 2 76
15 3 21
15 4 9
15 5 89
15 6 77
15 7 54
15 8 4
15 9 62
15 10 22
15 11 17
15 12 30
15 13 92
15 14 46
16 0 79
16 1 45
16 2 71
16 3 12
16 4 87
16 5 33
16 6 34
16 7 96
16 8 29
16 9 25
16 10 22
16 11 94
16 12 25
16 13 40
16 14 5
16 15 57
17 0 56
17 1 12
17 2 39
17 3 10
17 4 45
17 5 10
17 6 46
17 7 14
17 8 48
17 9 88
17 10 7
17 11 63
17 12 31
17 13 13
17 14 33
17 15 38
17 16 10
18 0 54
18 1 54
18 2 60
18 3 13
18 4 41
18 5 19
18 6 6
18 7 78
18 8 12
18 9 25
18 10 83
18 11 87
18 12 19
18 13 99
18 14 80
18 15 20
18 16 58
18 17 5
19 0 35
19 1 55
19 2 42
19 3 53
19 4 88
19 5 68
19 6 35
19 7 34
19 8 16
19 9 8
19 10 10
19 11 100
19 12 56
19 13 31
19 14 7
19 15 70
19 16 75
19 17 37
19 18 100
20 0 28
20 1 39
20 2 44
20 3 96
20 4 46
20 5 86
20 6 84
20 7 29
20 8 46
20 9 9
20 10 2
20 11 27
20 12 78
20 13 4
20 14 12
20 15 52
20 16 100
20 17 40
20 18 21
20 19 48
21 0 59
21 1 50
21 2 30
21 3 55
21 4 20
21 5 52
21 6 87
21 7 56
21 8 6
21 9 65
21 10 26
21 11 84
21 12 25
21 13 47
21 14 39
21 15 91
21 16 4
21 17 100
21 18 57
21 19 64
21 20 63
22 0 6
22 1 31
22 2 43
22 3 89
22 4 79
22 5 50
22 6 61
22 7 7
22 8 81
22 9 30
22 10 28
22 11 33
22 12 88
22 13 61
22 14 24
22 15 84
22 16 46
22 17 99
22 18 69
22 19 69
22 20 40
22 21 39
23 0 81
23 1 69
23 2 46
23 3 7
23 4 53
23 5 17
23 6 73
23 7 52
23 8 7
23 9 99
23 10 93
23 11 29
23 12 93
23 13 55
23 14 18
23 15 15
23 16 50
23 17 58
23 18 77
23 19 75
23 20 59
23 21 80
23 22 98
24 0 88
24 1 30
24 2 87
24 3 12
24 4 4
24 5 24
24 6 22
24 7 4
24 8 71
24 9 89
24 10 59
24 11 3
24 12 72
24 13 70
24 14 49
24 15 91
24 16 57
24 17 21
24 18 79
24 19 46
24 20 57
24 21 16
24 22 22
24 23 66
25 0 7
25 1 55
25 2 51
25 3 44
25 4 30
25 5 3
25 6 38
25 7 85
25 8 62
25 9 10
25 10 68
25 11 71
25 12 95
25 13 95
25 14 29
25 15 41
25 16 86
25 17 2
25 18 74
25 19 30
25 20 70
25 21 50
25 22 49
25 23 71
25 24 47
26 0 40
26 1 43
26 2 78
26 3 51
26 4 98
26 5 7
26 6 45
26 7 19
26 8 53
26 9 31
26 10 40
26 11 7
26 12 88
26 13 1
26 14 75
26 15 38
26 16 14
26 17 51
26 18 79
26 19 61
26 20 49
26 21 95
26 22 10
26 23 67
26 24 4
26 25 11
27 0 74
27 1 97
27 2 13
27 3 89
27 4 52
27 5 17
27 6 57
27 7 84
27 8 38
27 9 64
27 10 56
27 11 35
27 12 48
27 13 80
27 14 54
27 15 35
27 16 48
27 17 95
27 18 100
27 19 57
27 20 14
27 21 15
27 22 3
27 23 86
27 24 24
27 25 29
27 26 31
28 0 4
28 1 35
28 2 50
28 3 56
28 4 31
28 5 8
28 6 47
28 7 84
28 8 9
28 9 82
28 10 32
28 11 18
28 12 92
28 13 97
28 14 7
28 15 37
28 16 86
28 17 26
28 18 95
28 19 95
28 20 30
28 21 76
28 22 1
28 23 73
28 24 31
28 25 55
28 26 80
28 27 33
29 0 88
29 1 9
29 2 5
29 3 59
29 4 62
29 5 91
29 6 66
29 7 91
29 8 93
29 9 20
29 10 50
29 11 80
29 12 54
29 13 15
29 14 58
29 15 13
29 16 94
29 17 39
29 18 89
29 19 1
29 20 28
29 21 79
29 22 83
29 23 27
29 24 55
29 25 42
29 26 91
29 27 81
29 28 26
30 0 47
30 1 44
30 2 46
30 3 80
30 4 46
30 5 12
30 6 9
30 7 37
30 8 3
30 9 85
30 10 1
30 11 1
30 12 4
30 13 16
30 14 1
30 15 18
30 16 94
30 17 13
30 18 61
30 19 95
30 20 53
30 21 61
30 22 15
30 23 63
30 24 51
30 25 21
30 26 5
30 27 62
30 28 64
30 29 29
31 0 25
31 1 59
31 2 28
31 3 85
31 4 65
31 5 33
31 6 48
31 7 36
31 8 12
31 9 98
31 10 27
31 11 52
31 12 27
31 13 40
31 14 52
31 15 76
31 16 25
31 17 82
31 18 49
31 19 97
31 20 9
31 21 16
31 22 22
31 23 50
31 24 46
31 25 65
31 26 13
31 27 84
31 28 81
31 29 55
31 30 56
32 0 20
32 1 28
32 2 8
32 3 14
32 4 91
32 5 80
32 6 5
32 7 17
32 8 58
32 9 41
32 10 61
32 11 50
32 12 29
32 13 56
32 14 19
32 15 45
32 16 20
32 17 92
32 18 53
32 19 82
32 20 40
32 21 15
32 22 37
32 23 15
32 24 5
32 25 46
32 26 23
32 27 60
32 28 84
32 29 96
32 30 32
32 31 11
33 0 50
33 1 22
33 2 50
33 3 91
33 4 94
33 5 42
33 6 83
33 7 37
33 8 4
33 9 2
33 10 22
33 11 73
33 12 39
33 13 4
33 14 9
33 15 39
33 16 37
33 17 100
33 18 10
33 19 59
33 20 42
33 21 43
33 22 37
33 23 78
33 24 36
33 25 46
33 26 79
33 27 99
33 28 11
33 29 66
33 30 26
33 31 99
33 32 25
34 0 43
34 1 99
34 2 7
34 3 18
34 4 50
34 5 23
34 6 62
34 7 78
34 8 26
34 9 4
34 10 7
34 11 100
34 12 9
34 13 89
34 14 64
34 15 61
34 16 92
34 17 41
34 18 5
34 19 10
34 20 53
34 21 35
34 22 22
34 23 54
34 24 49
34 25 68
34 26 41
34 27 74
34 28 75
34 29 42
34 30 54
34 31 13
34 32 17
34 33 50
35 0 57
35 1 15
35 2 45
35 3 93
35 4 8
35 5 9
35 6 55
35 7 93
35 8 58
35 9 73
35 10 26
35 11 80
35 12 5
35 13 6
35 14 50
35 15 83
35 16 88
35 17 100
35 18 89
35 19 31
35 20 17
35 21 13
35 22 14
35 23 65
35 24 89
35 25 44
35 26 68
35 27 5
35 28 63
35 29 85
35 30 51
35 31 19
35 32 80
35 33 6
35 34 1
36 0 9
36 1 46
36 2 87
36 3 42
36 4 81
36 5 25
36 6 98
36 7 10
36 8 91
36 9 100
36 10 8
36 11 84
36 12 64
36 13 13
36 14 61
36 15 74
36 16 45
36 17 79
36 18 50
36 19 54
36 20 16
36 21 31
36 22 91
36 23 37
36 24 91
36 25 60
36 26 54
36 27 29
36 28 82
36 29 46
36 30 26
36 31 11
36 32 79
36 33 88
36 34 3
36 35 31
37 0 9
37 1 83
37 2 34
37 3 14
37 4 55
37 5 27
37 6 67
37 7 20
37 8 46
37 9 13
37 10 69
37 11 97
37 12 58
37 13 65
37 14 24
37 15 20
37 16 87
37 17 31
37 18 25
37 19 15
37 20 78
37 21 17
37 22 17
37 23 97
37 24 19
37 25 49
37 26 57
37 27 83
37 28 44
37 29 80
37 30 96
37 31 54
37 32 2
37 33 81
37 34 5
37 35 74
37 36 74
38 0 96
38 1 89
38 2 95
38 3 59
38 4 39
38 5 76
38 6 6
38 7 54
38 8 59
38 9 59
38 10 98
38 11 100
38 12 16
38 13 40
38 14 65
38 15 77
38 16 29
38 17 96
38 18 53
38 19 49
38 20 94
38 21 76
38 22 26
38 23 16
38 24 94
38 25 87
38 26 21
38 27 13
38 28 26
38 29 32
38 30 3
38 31 58
38 32 40
38 33 21
38 34 46
38 35 49
38 36 50
38 37 42
39 0 96
39 1 60
39 2 67
39 3 85
39 4 94
39 5 75
39 6 73
39 7 49
39 8 73
39 9 79
39 10 11
39 11 78
39 12 45
39 13 78
39 14 91
39 15 90
39 16 45
39 17 22
39 18 15
39 19 21
39 20 9
39 21 65
39 22 77
39 23 83
39 24 81
39 25 63
39 26 2
39 27 99
39 28 100
39 29 15
39 30 3
39 31 83
39 32 2
39 33 86
39 34 3
39 35 75
39 36 28
39 37 71
39 38 32
40 0 32
40 1 34
40 2 93
40 3 87
40 4 52
40 5 52
40 6 32
40 7 44
40 8 81
40 9 29
40 10 40
40 11 36
40 12 12
40 13 52
40 14 87
40 15 37
40 16 8
40 17 43
40 18 35
40 19 31
40 20 80
40 21 64
40 22 47
40 23 48
40 24 6
40 25 90
40 26 65
40 27 85
40 28 89
40 29 23
40 30 25
40 31 63
40 32 70
40 33 48
40 34 88
40 35 77
40 36 59
40 37 82
40 38 4
40 39 44
41 0 43
41 1 41
41 2 45
41 3 45
41 4 76
41 5 36
41 6 60
41 7 38
41 8 80
41 9 74
41 10 51
41 11 70
41 12 92
41 13 17
41 14 74
41 15 12
41 16 54
41 17 45
41 18 98
41 19 19
41 20 13
41 21 97
41 22 95
41 23 62
41 24 87
41 25 7
41 26 31
41 27 94
41 28 22
41 29 58
41 30 90
41 31 54
41 32 27
41 33 11
41 34 45
41 35 19
41 36 81
41 37 84
41 38 53
41 39 39
41 40 36
42 0 97
42 1 57
42 2 45
42 3 69
42 4 2
42 5 97
42 6 95
42 7 43
42 8 63
42 9 88
42 10 98
42 11 3
42 12 52
42 13 98
42 14 46
42 15 96
42 16 86
42 17 32
42 18 26
42 19 93
42 20 14
42 21 33
42 22 7
42 23 76
42 24 25
42 25 26
42 26 9
42 27 77
42 28 50
42 29 69
42 30 12
42 31 21
42 32 63
42 33 8
42 34 60
42 35 89
42 36 13
42 37 34
42 38 59
42 39 6
42 40 42
42 41 86
43 0 84
43 1 19
43 2 68
43 3 53
43 4 39
43 5 31
43 6 37
43 7 80
43 8 37
43 9 93
43 10 78
43 11 62
43 12 91
43 13 70
43 14 16
43 15 87
43 16 38
43 17 46
43 18 9
43 19 77
43 20 32
43 21 22
43 22 44
43 23 13
43 24 82
43 25 25
43 26 87
43 27 60
43 28 16
43 29 29
43 30 73
43 31 27
43 32 4
43 33 72
43 34 87
43 35 21
43 36 67
43 37 95
43 38 73
43 39 87
43 40 48
43 41 50
43 42 70
44 0 31
44 1 42
44 2 65
44 3 53
44 4 87
44 5 86
44 6 38
44 7 47
44 8 64
44 9 72
44 10 15
44 11 21
44 12 72
44 13 36
44 14 72
44 15 98
44 16 45
44 17 23
44 18 98
44 19 28
44 20 75
44 21 40
44 22 61
44 23 11
44 24 45
44 25 45
44 26 95
44 27 66
44 28 26
44 29 35
44 30 42
44 31 87
44 32 64
44 33 34
44 34 33
44 35 37
44 36 81
44 37 83
44 38 12
44 39 53
44 40 64
44 41 88
44 42 2
44 43 76
45 0 18
45 1 95
45 2 99
45 3 41
45 4 99
45 5 70
45 6 33
45 7 56
45 8 63
45 9 18
45 10 15
45 11 89
45 12 90
45 13 70
45 14 89
45 15 33
45 16 75
45 17 15
45 18 36
45 19 98
45 20 91
45 21 71
45 22 7
45 23 85
45 24 61
45 25 98
45 26 76
45 27 7
45 28 8
45 29 14
45 30 53
45 31 85
45 32 57
45 33 68
45 34 85
45 35 28
45 36 10
45 37 71
45 38 35
45 39 66
45 40 30
45 41 100
45 42 33
45 43 7
45 44 85
46 0 10
46 1 19
46 2 27
46 3 54
46 4 38
46 5 31
46 6 32
46 7 92
46 8 75
46 9 12
46 10 23
46 11 1
46 12 34
46 13 31
46 14 74
46 15 60
46 16 51
46 17 46
46 18 3
46 19 8
46 20 94
46 21 57
46 22 79
46 23 85
46 24 55
46 25 20
46 26 26
46 27 65
46 28 73
46 29 26
46 30 79
46 31 63
46 32 97
46 33 59
46 34 30
46 35 66
46 36 78
46 37 97
46 38 68
46 39 35
46 40 78
46 41 18
46 42 80
46 43 90
46 44 12
46 45 7
47 0 93
47 1 57
47 2 59
47 3 7
47 4 58
47 5 47
47 6 30
47 7 36
47 8 8
47 9 88
47 10 56
47 11 66
47 12 46
47 13 48
47 14 43
47 15 55
47 16 41
47 17 3
47 18 15
47 19 49
47 20 42
47 21 43
47 22 24
47 23 14
47 24 29
47 25 19
47 26 15
47 27 69
47 28 73
47 29 81
47 30 66
47 31 8
47 32 67
47 33 53
47 34 44
47 35 54
47 36 45
47 37 42
47 38 43
47 39 74
47 40 17
47 41 87
47 42 3
47 43 48
47 44 73
47 45 87
47 46 20
48 0 74
48 1 36
48 2 68
48 3 91
48 4 40
48 5 69
48 6 78
48 7 69
48 8 17
48 9 70
48 10 14
48 11 9
48 12 33
48 13 2
48 14 26
48 15 34
48 16 49
48 17 53
48 18 57
48 19 52
48 20 31
48 21 8
48 22 99
48 23 1
48 24 96
48 25 85
48 26 89
48 27 15
48 28 84
48 29 82
48 30 61
48 31 15
48 32 72
48 33 10
48 34 47
48 35 87
48 36 36
48 37 21
48 38 72
48 39 2
48 40 30
48 41 67
48 42 99
48 43 68
48 44 37
48 45 39
48 46 17
48 47 46
49 0 99
49 1 56
49 2 73
49 3 59
49 4 58
49 5 39
49 6 100
49 7 63
49 8 41
49 9 62
49 10 82
49 11 84
49 12 71
49 13 65
49 14 64
49 15 26
49 16 7
49 17 98
49 18 96
49 19 91
49 20 28
49 21 93
49 22 74
49 23 99
49 24 16
49 25 14
49 26 7
49 27 70
49 28 7
49 29 16
49 30 30
49 31 16
49 32 19
49 33 16
49 34 43
49 35 60
49 36 62
49 37 65
49 38 44
49 39 67
49 40 100
49 41 54
49 42 77
49 43 74
49 44 27
49 45 20
49 46 38
49 47 31
49 48 55
